--- Job zonal_with_locational_instrument.gms Start 11/26/21 14:48:48 30.3.0 rc5da09e WEX-WEI x86 64bit/MS Windows
--- GAMS Parameters defined
    Input C:\Users\a.eicke\Documents\Locational-investment-signals\Three node models\zonal_with_locational_instrument.gms
    PageSize 0
    ScrDir C:\Users\a.eicke\Documents\Locational-investment-signals\Three node models\225a\
    SysDir C:\GAMS\win64\30.3\
    LogOption 3
    ErrMsg 1
    ErrorLog 99
    IDE 1
    LstTitleLeftAligned 1
GAMS 30.3.0   Copyright (C) 1987-2020 GAMS Development. All rights reserved
Licensee: Small MUD - 5 User License                     S190305:0326AO-WIN
          Hertie School of Governance GmbH, Governance of DigitalizaDC14808
--- Starting compilation
--- zonal_with_locational_instrument.gms(85) 3 Mb
--- GDXin=C:\Users\a.eicke\Documents\Locational-investment-signals\Three node models\in.gdx
--- zonal_with_locational_instrument.gms(319) 3 Mb
--- Starting execution: elapsed 0:00:00.022
--- zonal_with_locational_instrument.gms(294) 4 Mb
--- Generating MIQCP model LOCI
--- zonal_with_locational_instrument.gms(297) 7 Mb
---   2,339 rows  1,733 columns  6,497 non-zeroes
---   322 nl-code  56 nl-non-zeroes
---   472 discrete-columns
--- zonal_with_locational_instrument.gms(297) 5 Mb
--- Executing CPLEX: elapsed 0:00:00.063

IBM ILOG CPLEX   30.3.0 rc5da09e Released Mar 06, 2020 WEI x86 64bit/MS Window
--- GAMS/Cplex licensed for continuous and discrete problems.
Cplex 12.10.0.0

The search will stop after 25000000 nodes.
Reading data...
Starting Cplex...
Space for names approximately 0.12 Mb
Use option 'names no' to turn use of names off
Version identifier: 12.10.0.0 | 2019-11-26 | 843d4de2ae
CPXPARAM_Advance                                 0
CPXPARAM_Threads                                 1
CPXPARAM_Parallel                                1
CPXPARAM_MIP_Display                             4
CPXPARAM_Simplex_Limits_Iterations               2000000000
CPXPARAM_MIP_Limits_Nodes                        25000000
CPXPARAM_TimeLimit                               40000
CPXPARAM_Tune_TimeLimit                          8000
CPXPARAM_MIP_Tolerances_AbsMIPGap                0
CPXPARAM_MIP_Tolerances_MIPGap                   0.10000000000000001
CPXPARAM_WorkDir                                 "C:\Users\a.eicke\Documents\Locational-investment-signals\Three node models\225a\"
Tried aggregator 2 times.
MIQP Presolve eliminated 796 rows and 244 columns.
MIQP Presolve modified 646 coefficients.
Aggregator did 49 substitutions.
Reduced MIQP has 1494 rows, 1431 columns, and 4412 nonzeros.
Reduced MIQP has 404 binaries, 0 generals, 0 SOSs, and 0 indicators.
Reduced MIQP objective Q matrix has 104 nonzeros.
Presolve time = 0.01 sec. (4.79 ticks)
Probing fixed 0 vars, tightened 156 bounds.
Probing time = 0.02 sec. (1.51 ticks)
Tried aggregator 1 time.
MIQP Presolve modified 156 coefficients.
Reduced MIQP has 1494 rows, 1431 columns, and 4412 nonzeros.
Reduced MIQP has 404 binaries, 0 generals, 0 SOSs, and 0 indicators.
Reduced MIQP objective Q matrix has 104 nonzeros.
Presolve time = 0.00 sec. (2.53 ticks)
Classifier predicts products in MIQP should be linearized.
Probing fixed 0 vars, tightened 9 bounds.
Probing time = 0.02 sec. (1.09 ticks)
Clique table members: 348.
MIP emphasis: balance optimality and feasibility.
MIP search method: dynamic search.
Parallel mode: none, using 1 thread.
Number of nonzeros in lower triangle of Q = 24
Using Approximate Minimum Degree ordering
Total time for automatic ordering = 0.00 sec. (0.00 ticks)
Summary statistics for factor of Q:
  Rows in Factor            = 56
  Integer space required    = 56
  Total non-zeros in factor = 80
  Total FP ops to factor    = 128
Tried aggregator 1 time.
Aggregator did 404 substitutions.
Number of nonzeros in lower triangle of Q = 24
Using Approximate Minimum Degree ordering
Total time for automatic ordering = 0.00 sec. (0.00 ticks)
Summary statistics for factor of Q:
  Rows in Factor            = 56
  Integer space required    = 56
  Total non-zeros in factor = 80
  Total FP ops to factor    = 128
Reduced QP has 1090 rows, 1027 columns, and 3604 nonzeros.
Reduced QP objective Q matrix has 104 nonzeros.
Presolve time = 0.00 sec. (1.14 ticks)
Tried aggregator 1 time.
QP Presolve eliminated 24 rows and 24 columns.
QP Presolve added 0 rows and 56 columns.
Reduced QP has 1122 rows, 1059 columns, and 3692 nonzeros.
Reduced QP objective Q matrix has 32 nonzeros.
Presolve time = 0.00 sec. (0.57 ticks)
Parallel mode: none, using 1 thread for barrier

***NOTE: Found 9 dense columns.

Number of nonzeros in lower triangle of A*A' = 4567
Using Approximate Minimum Degree ordering
Total time for automatic ordering = 0.00 sec. (0.55 ticks)
Summary statistics for Cholesky factor:
  Rows in Factor            = 1131
  Integer space required    = 2676
  Total non-zeros in factor = 12174
  Total FP ops to factor    = 172968
 Itn      Primal Obj        Dual Obj  Prim Inf Upper Inf  Dual Inf          
   0  -6.3347410e+05   3.8362361e+10  2.28e+05  1.26e+05  8.04e+05
   1  -6.8706402e+05   2.7262649e+10  1.62e+05  8.90e+04  5.69e+05
   2  -8.0483389e+05   2.1832091e+10  1.29e+05  7.09e+04  4.54e+05
   3  -9.7493682e+05   1.2176293e+10  7.09e+04  3.91e+04  2.50e+05
   4  -9.9856687e+05   6.1413448e+09  3.51e+04  1.94e+04  1.24e+05
   5  -9.0512047e+05   4.1119554e+08  1.98e+03  1.09e+03  7.02e+03
   6  -7.6670741e+05   6.8278834e+07  3.19e+02  1.76e+02  1.15e+03
   7  -4.7554463e+05   6.6195983e+07  2.54e+02  1.40e+02  9.16e+02
   8  -2.4091059e+05   1.0157322e+07  3.31e+01  1.82e+01  1.20e+02
   9  -1.0836167e+05   5.0262726e+06  1.13e+01  6.24e+00  4.09e+01
  10  -4.9462604e+03   1.0264652e+06  5.33e-01  2.94e-01  1.93e+00
  11   6.4312795e+04   2.3256781e+05  5.23e-02  2.88e-02  1.89e-01
  12   8.2916004e+04   1.8000739e+05  2.66e-02  1.47e-02  9.61e-02
  13   9.0850456e+04   1.5001785e+05  8.60e-03  4.74e-03  3.11e-02
  14   9.8889046e+04   1.1765832e+05  2.56e-03  1.41e-03  9.26e-03
  15   1.0145118e+05   1.0844713e+05  7.71e-04  4.25e-04  2.79e-03
  16   1.0253972e+05   1.0480043e+05  1.94e-04  1.07e-04  7.00e-04
  17   1.0301875e+05   1.0331898e+05  2.41e-05  1.33e-05  8.69e-05
  18   1.0309551e+05   1.0313370e+05  2.99e-06  1.65e-06  1.08e-05
  19   1.0310410e+05   1.0310917e+05  3.93e-07  2.16e-07  1.41e-06
  20   1.0310501e+05   1.0310611e+05  1.05e-07  4.76e-08  3.04e-07
  21   1.0310524e+05   1.0310532e+05  5.29e-08  4.56e-09  2.12e-08
  22   1.0310526e+05   1.0310526e+05  4.69e-08  1.49e-09  1.16e-10
  23   1.0310526e+05   1.0310526e+05  5.26e-08  1.41e-09  5.68e-12
Barrier time = 0.03 sec. (20.41 ticks)

Total time on 1 threads = 0.03 sec. (21.56 ticks)
Barrier time = 0.03 sec. (20.43 ticks)

QP crossover.
  Primal and Dual:  Fixing 477 variables.
  Primal:  Pushed 168, exchanged 199.
  Dual  :  Pushed 111, exchanged 188.
Total crossover time = 0.03 sec. (15.90 ticks)

Total time on 1 threads = 0.06 sec. (37.60 ticks)
Root relaxation solution time = 0.06 sec. (37.60 ticks)

        Nodes                                         Cuts/
   Node  Left     Objective  IInf  Best Integer    Best Bound    ItCnt     Gap

      0     0   103105.2564   199                 103105.2564       23         
      0     0   103103.9387   199                   Cuts: 161      272         
      0     0   103102.7911   199                   Cuts: 255      581         
      0     0   103067.0712   199                   Cuts: 254      913         
      0     0   102986.3097   199                   Cuts: 269     1448         
      0     0   102978.3294   199                   Cuts: 307     1935         
      0     0   102938.2284   199                   Cuts: 215     2214         
      0     0   102684.4448   199                   Cuts: 282     2541         
      0     0   102682.3963   199                   Cuts: 199     2697         
      0     0   102676.0755   199                   Cuts: 178     2857         
*     0+    0                        90717.3069   102676.0755            13.18%
Found incumbent of value 90717.306857 after 2.76 sec. (1552.09 ticks)
      0     2   102676.0755   235    90717.3069   102673.8824     2857   13.18%
Elapsed time = 2.78 sec. (1556.03 ticks, tree = 0.01 MB, solutions = 1)
     59    45    90928.2065   126    90717.3069   101514.2944     8482   11.90%
     90    74    99153.7070   133    90717.3069   101514.2944    10876   11.90%
    112    92    95991.8613    96    90717.3069   101514.2944    15608   11.90%
    158   126        cutoff          90717.3069   101300.1837    17998   11.67%
                                                     Cuts: 14                  
    195   157        cutoff          90717.3069   101300.1837    21831   11.67%
    208   170    98426.6792   177    90717.3069   101300.1837    24264   11.67%
    219   173    96785.5291   160    90717.3069   101300.1837    29539   11.67%
    251   199    94677.3786   101    90717.3069   101300.1837    33550   11.67%
    312   221        cutoff          90717.3069   101295.7469    36967   11.66%
                                                      Cuts: 9                  
    440   311    98958.8266   183    90717.3069   101283.4500    52944   11.65%
                                                     Cuts: 12                  
Elapsed time = 8.23 sec. (4943.34 ticks, tree = 0.25 MB, solutions = 1)
    643   438    98526.5727   175    90717.3069   101275.2543    67082   11.64%
                                                      Cuts: 3                  
    868   625    90738.7585    30    90717.3069   101226.6141    81055   11.58%
                                                     Cuts: 54                  
*   905   571      integral     0    90738.7585   101226.6141    81714   11.56%
Found incumbent of value 90738.758532 after 11.01 sec. (6890.41 ticks)

Performing restart 1

Repeating presolve.
Tried aggregator 1 time.
MIQP Presolve modified 9 coefficients.
Reduced MIQP has 1494 rows, 1431 columns, and 4412 nonzeros.
Reduced MIQP has 404 binaries, 0 generals, 0 SOSs, and 0 indicators.
Reduced MIQP objective Q matrix has 104 nonzeros.
Presolve time = 0.00 sec. (1.87 ticks)
Tried aggregator 1 time.
Reduced MIQP has 1494 rows, 1431 columns, and 4412 nonzeros.
Reduced MIQP has 404 binaries, 0 generals, 0 SOSs, and 0 indicators.
Reduced MIQP objective Q matrix has 104 nonzeros.
Presolve time = 0.02 sec. (1.86 ticks)
Represolve time = 0.03 sec. (9.21 ticks)
Number of nonzeros in lower triangle of Q = 24
Using Approximate Minimum Degree ordering
Total time for automatic ordering = 0.00 sec. (0.00 ticks)
Summary statistics for factor of Q:
  Rows in Factor            = 56
  Integer space required    = 56
  Total non-zeros in factor = 80
  Total FP ops to factor    = 128
Tried aggregator 1 time.
QP Presolve eliminated 2 rows and 0 columns.
Aggregator did 214 substitutions.
Number of nonzeros in lower triangle of Q = 24
Using Approximate Minimum Degree ordering
Total time for automatic ordering = 0.00 sec. (0.00 ticks)
Summary statistics for factor of Q:
  Rows in Factor            = 56
  Integer space required    = 56
  Total non-zeros in factor = 80
  Total FP ops to factor    = 128
Reduced QP has 1735 rows, 1217 columns, and 6296 nonzeros.
Reduced QP objective Q matrix has 104 nonzeros.
Presolve time = 0.00 sec. (1.48 ticks)
Tried aggregator 1 time.
QP Presolve eliminated 24 rows and 24 columns.
QP Presolve added 0 rows and 56 columns.
Reduced QP has 1767 rows, 1249 columns, and 6384 nonzeros.
Reduced QP objective Q matrix has 32 nonzeros.
Presolve time = 0.00 sec. (0.85 ticks)
Parallel mode: none, using 1 thread for barrier

***NOTE: Found 10 dense columns.

Number of nonzeros in lower triangle of A*A' = 12047
Using Approximate Minimum Degree ordering
Total time for automatic ordering = 0.01 sec. (1.33 ticks)
Summary statistics for Cholesky factor:
  Rows in Factor            = 1777
  Integer space required    = 6801
  Total non-zeros in factor = 39148
  Total FP ops to factor    = 1136366
 Itn      Primal Obj        Dual Obj  Prim Inf Upper Inf  Dual Inf          
   0  -4.1648616e+05   3.6607063e+10  3.76e+05  1.98e+05  1.45e+06
   1  -6.7412108e+05   2.6266329e+10  2.69e+05  1.42e+05  1.03e+06
   2  -6.9301781e+05   2.3391812e+10  2.39e+05  1.26e+05  9.20e+05
   3  -6.5499995e+05   9.5657342e+09  9.60e+04  5.06e+04  3.69e+05
   4  -6.0102685e+05   4.9294331e+09  4.82e+04  2.54e+04  1.85e+05
   5  -5.7601405e+05   3.4982991e+09  3.31e+04  1.75e+04  1.27e+05
   6  -5.9846212e+05   8.9301739e+08  7.84e+03  4.13e+03  3.02e+04
   7  -5.7746359e+05   1.4927428e+08  1.20e+03  6.33e+02  4.63e+03
   8  -4.1491131e+05   3.4848107e+07  2.44e+02  1.29e+02  9.40e+02
   9  -3.5978791e+05   3.0412401e+07  2.04e+02  1.08e+02  7.86e+02
  10  -2.9488720e+05   2.4264298e+07  1.52e+02  8.03e+01  5.87e+02
  11  -2.1154304e+05   1.5306490e+07  7.72e+01  4.06e+01  2.97e+02
  12  -1.4316153e+05   9.3830402e+06  4.03e+01  2.12e+01  1.55e+02
  13  -2.1091688e+04   1.2780375e+06  3.86e+00  2.03e+00  1.49e+01
  14   2.2639836e+04   7.3265538e+05  1.70e+00  8.98e-01  6.56e+00
  15   3.8562158e+04   6.9146484e+05  8.04e-01  4.23e-01  3.09e+00
  16   7.8109614e+04   2.2270028e+05  1.60e-01  8.45e-02  6.18e-01
  17   8.8479981e+04   1.8319916e+05  5.16e-02  2.72e-02  1.99e-01
  18   9.2932610e+04   1.5661335e+05  2.66e-02  1.40e-02  1.03e-01
  19   9.8887562e+04   1.1957891e+05  3.06e-03  1.61e-03  1.18e-02
  20   1.0054925e+05   1.1237495e+05  1.49e-03  7.85e-04  5.73e-03
  21   1.0106828e+05   1.0971378e+05  3.52e-04  1.85e-04  1.35e-03
  22   1.0182793e+05   1.0657214e+05  1.33e-04  7.00e-05  5.11e-04
  23   1.0196618e+05   1.0584444e+05  8.81e-05  4.64e-05  3.39e-04
  24   1.0225906e+05   1.0457448e+05  4.74e-05  2.50e-05  1.83e-04
  25   1.0243036e+05   1.0374077e+05  2.68e-05  1.41e-05  1.03e-04
  26   1.0259271e+05   1.0304606e+05  9.29e-06  4.89e-06  3.57e-05
  27   1.0263544e+05   1.0286101e+05  4.62e-06  2.44e-06  1.78e-05
  28   1.0266241e+05   1.0274218e+05  1.64e-06  8.63e-07  6.30e-06
  29   1.0266742e+05   1.0271636e+05  1.01e-06  5.30e-07  3.86e-06
  30   1.0267455e+05   1.0268332e+05  1.85e-07  9.57e-08  6.91e-07
  31   1.0267569e+05   1.0267788e+05  5.36e-08  2.48e-08  1.72e-07
  32   1.0267605e+05   1.0267622e+05  2.96e-08  3.05e-09  1.37e-08
  33   1.0267607e+05   1.0267608e+05  2.44e-08  1.21e-09  4.47e-10
  34   1.0267608e+05   1.0267608e+05  5.33e-08  1.18e-09  1.50e-11
  35   1.0267608e+05   1.0267608e+05  6.03e-06  1.45e-09  1.06e-11
Barrier time = 0.20 sec. (67.47 ticks)

Total time on 1 threads = 0.20 sec. (68.95 ticks)
Barrier time = 0.20 sec. (67.49 ticks)

QP crossover.
  Primal and Dual:  Fixing 643 variables.
  Primal:  Pushed 215, exchanged 317.
  Dual  :  Pushed 65, exchanged 304.
Removing shift (3472).
Total crossover time = 0.06 sec. (26.03 ticks)

Total time on 1 threads = 0.26 sec. (95.19 ticks)
   1015     0   102671.5432   194    90738.7585     Cuts: 417    95070   11.54%
   1015     0   102608.7440   194    90738.7585     Cuts: 276    95337   11.54%
   1015     0   102371.4062   194    90738.7585     Cuts: 257    95772   11.54%
   1015     0   102369.7386   194    90738.7585     Cuts: 446    96020   11.54%
   1015     0   102302.5166   194    90738.7585     Cuts: 337    96156   11.54%
   1015     2   102302.5166   203    90738.7585   101208.2188    96156   11.54%
   1019     6   101313.2759   194    90738.7585   101208.2188    96540   11.54%
   1024    11   100099.9666   159    90738.7585   101208.2188    97095   11.54%
   1030    17   100344.4354   159    90738.7585   101208.2188    97361   11.54%
   1036    21    99451.3762   118    90738.7585   101208.2188    99625   11.54%
   1041    24    72510.7534   105    90738.7585   101208.2188   101380   11.54%
   1047    27    97795.1677   116    90738.7585   101208.2188   102491   11.54%
   1054    28    69233.6566    99    90738.7585   101208.2188   104380   11.54%
Elapsed time = 24.83 sec. (17042.40 ticks, tree = 0.03 MB, solutions = 2)
   1065    37    97228.9276    77    90738.7585   101208.2188   105296   11.54%
   1076    48    96729.1454    67    90738.7585   101208.2188   105594   11.54%
   1129    78   100322.2224   180    90738.7585   101208.2188   107529   11.54%
   1136    83    97685.7416   140    90738.7585   101208.2188   109570   11.54%
   1149    94    97319.7173   127    90738.7585   101208.2188   110375   11.54%
   1157   102    96512.3626   132    90738.7585   101208.2188   111677   11.54%
   1186   127    95503.9381    89    90738.7585   101208.2188   112513   11.54%
   1265   195    91595.4763    19    90738.7585   101208.2188   115131   11.54%
   1274   194    99689.4485   137    90738.7585   101208.2188   117996   11.54%
   1283   203    98065.8007   144    90738.7585   101208.2188   118757   11.54%
Elapsed time = 37.84 sec. (27212.78 ticks, tree = 0.16 MB, solutions = 2)
   1295   211    92909.8946   118    90738.7585   101208.2188   119934   11.54%
*  1355+  238                        90868.4026   101208.2188            11.38%
Found incumbent of value 90868.402640 after 40.05 sec. (28927.48 ticks)
   1357   235        cutoff          90868.4026   101100.9694   125649   11.26%
   1361   237    98878.0183   167    90868.4026   101072.5845   128151   11.23%
   1373   246    97305.4647   138    90868.4026   101072.5845   130055   11.23%
   1393   264    96429.9630   107    90868.4026   101072.5845   131109   11.23%
*  1455+  208                        91956.4009   101072.5845             9.91%
Found incumbent of value 91956.400874 after 45.75 sec. (33225.54 ticks)

Clique cuts applied:  6
Cover cuts applied:  2
Implied bound cuts applied:  10
Flow cuts applied:  141
Mixed integer rounding cuts applied:  85
Gomory fractional cuts applied:  6

Root node processing (before b&c):
  Real time             =    2.76 sec. (1555.08 ticks)
Sequential b&c:
  Real time             =   42.99 sec. (31671.21 ticks)
                          ------------
Total (root+branch&cut) =   45.75 sec. (33226.29 ticks)
MIQP status(102): integer optimal, tolerance
Cplex Time: 45.75sec (det. 33226.29 ticks)
Fixing integer variables, and solving final QP..
Version identifier: 12.10.0.0 | 2019-11-26 | 843d4de2ae
CPXPARAM_Advance                                 2
CPXPARAM_Threads                                 1
CPXPARAM_Parallel                                1
CPXPARAM_MIP_Display                             4
CPXPARAM_Simplex_Limits_Iterations               2000000000
CPXPARAM_MIP_Limits_Nodes                        25000000
CPXPARAM_TimeLimit                               40000
CPXPARAM_Tune_TimeLimit                          8000
CPXPARAM_MIP_Tolerances_AbsMIPGap                0
CPXPARAM_MIP_Tolerances_MIPGap                   0.10000000000000001
CPXPARAM_WorkDir                                 "C:\Users\a.eicke\Documents\Locational-investment-signals\Three node models\225a\"
Number of nonzeros in lower triangle of Q = 24
Using Approximate Minimum Degree ordering
Total time for automatic ordering = 0.00 sec. (0.00 ticks)
Summary statistics for factor of Q:
  Rows in Factor            = 56
  Integer space required    = 56
  Total non-zeros in factor = 80
  Total FP ops to factor    = 128
Tried aggregator 1 time.
QP Presolve eliminated 1822 rows and 1281 columns.
QP Presolve added 0 rows and 56 columns.
Aggregator did 279 substitutions.
Reduced QP has 294 rows, 229 columns, and 1084 nonzeros.
Reduced QP objective Q matrix has 20 nonzeros.
Presolve time = 0.01 sec. (1.83 ticks)
Parallel mode: none, using 1 thread for barrier

***NOTE: Found 7 dense columns.

Number of nonzeros in lower triangle of A*A' = 795
Using Approximate Minimum Degree ordering
Total time for automatic ordering = 0.00 sec. (0.05 ticks)
Summary statistics for Cholesky factor:
  Rows in Factor            = 301
  Integer space required    = 559
  Total non-zeros in factor = 3658
  Total FP ops to factor    = 51876
 Itn      Primal Obj        Dual Obj  Prim Inf Upper Inf  Dual Inf          
   0  -3.9562735e+07   3.0281805e+09  2.59e+06  1.97e+06  2.19e+05
   1  -1.2793159e+07   8.2725319e+08  6.53e+05  4.97e+05  5.53e+04
   2  -7.8183091e+06   3.8471535e+08  2.65e+05  2.01e+05  2.24e+04
   3  -4.3829318e+06   3.7528919e+07  9.35e+03  7.11e+03  7.95e+02
   4  -2.2912730e+06   1.8349737e+07  3.02e+03  2.30e+03  2.57e+02
   5  -6.5460126e+05   6.0675478e+06  5.25e+02  3.99e+02  4.47e+01
   6   5.2758363e+04   5.0206752e+05  2.58e+01  1.96e+01  2.20e+00
   7   8.6100089e+04   1.6785442e+05  4.43e+00  3.37e+00  3.77e-01
   8   8.9679020e+04   1.3022826e+05  1.63e+00  1.24e+00  1.39e-01
   9   8.9781887e+04   1.1852166e+05  4.44e-01  3.38e-01  3.77e-02
  10   9.1213659e+04   9.7877824e+04  7.95e-02  6.04e-02  6.73e-03
  11   9.1851955e+04   9.2649360e+04  8.07e-03  6.00e-03  6.69e-04
  12   9.1916150e+04   9.2229616e+04  3.42e-03  2.34e-03  2.61e-04
  13   9.1955712e+04   9.1961823e+04  9.32e-05  4.28e-05  4.72e-06
  14   9.1956397e+04   9.1956437e+04  1.79e-06  2.18e-07  2.44e-08
  15   9.1956401e+04   9.1956401e+04  7.37e-07  1.18e-09  4.03e-10
Barrier time = 0.01 sec. (5.56 ticks)

Total time on 1 threads = 0.01 sec. (5.56 ticks)
QP status(1): optimal
Cplex Time: 0.01sec (det. 5.56 ticks)

Solution satisfies tolerances.

MIP Solution:        91956.400874    (132691 iterations, 1455 nodes)
Final Solve:         91956.400806    (0 iterations)

Best possible:      101072.584509
Absolute gap:         9116.183634
Relative gap:            0.090194

--- Restarting execution
--- zonal_with_locational_instrument.gms(297) 2 Mb
--- Reading solution for model LOCI
--- Executing after solve: elapsed 0:00:46.003
--- zonal_with_locational_instrument.gms(319) 3 Mb
--- GDX File C:\Users\a.eicke\Documents\Locational-investment-signals\Three node models\Output/with_instrument_high_price_elasticity.gdx
*** Status: Normal completion
--- Job zonal_with_locational_instrument.gms Stop 11/26/21 14:49:34 elapsed 0:00:46.013
